c User generated cnf file
p cnf 12 35
-5 10 11 0 
-12 3 8 0 
6 6 -3 0 
3 -9 11 0 
7 -10 4 0 
-5 3 6 0 
-6 1 10 0 
1 2 -3 0 
6 10 -6 0 
9 8 -11 0 
12 12 -2 0 
2 -10 6 0 
-2 9 11 0 
-1 8 1 0 
3 1 -4 0 
9 -10 9 0 
-2 8 2 0 
-4 5 9 0 
-1 10 11 0 
1 5 -1 0 
2 -8 4 0 
-5 4 4 0 
4 4 -3 0 
8 8 -11 0 
-3 1 5 0 
-4 3 11 0 
-4 11 6 0 
5 -1 7 0 
3 -12 7 0 
-5 6 7 0 
-12 9 2 0 
-12 7 9 0 
12 7 -8 0 
-1 2 12 0 
-10 12 6 0 
